16349 11651 1378
16661 10339 1370
12386 14614 1620
13430 14570 1596
14708 13292 1560
16011 10989 1470
13903 13097 1615
13738 14262 1595
12299 16701 1447
12955 16045 1535
14263 12737 1601
12884 13116 1622
11572 16428 1544
16585 10415 1405
11122 16878 1490
12270 16730 1424
11757 15243 1613
11767 16233 1561
16334 11666 1405
15524 13476 1446
12160 13840 1625
15863 13137 1374
12413 15587 1590
12251 16749 1374
15463 13537 1454
15039 13961 1496
10868 17132 1341
14618 14382 1518
15366 11634 1531
15243 12757 1528
14348 13652 1574
13025 15975 1542
12235 16765 1303
14195 14805 1386
12516 15484 1591
13118 13882 1618
16273 11727 1413
13660 15340 1554
